Route 1: 0 76 6 1 24 68 42 51 0
Route 2: 0 53 52 57 15 98 58 3 97 39 27 34 71 0
Route 3: 0 59 61 33 5 100 10 95 30 35 87 43 14 0
Route 4: 0 85 16 66 74 77 75 69 44 22 46 17 0
Route 5: 0 54 38 55 25 92 37 50 0
Route 6: 0 26 49 90 12 45 86 8 47 19 0
Route 7: 0 93 48 29 65 60 18 0
Route 8: 0 28 41 21 70 63 73 31 72 9 91 0
Route 9: 0 94 4 32 81 79 56 13 89 88 84 83 0
Route 10: 0 7 62 78 2 20 82 36 23 40 99 80 0
Route 11: 0 64 11 96 67 0
